147
100000
28
16503
11593
15689
18586
102
44619
38020
33136
17566
16358
30316
42283
3951
10722
11389
34369
44068
15381
2952
9217
20575
2811
352
38865
9515
22062
28919
25009
1493
26173
3248
10003
37212
8379
48362
30564
17175
3402
46458
14994
4401
7022
8650
3705
31101
10164
39688
19025
18531
19697
22127
26944
10936
44631
27538
37711
13690
48103
5154
11059
17958
5244
31724
11585
14637
38927
21426
32732
21536
4168
16616
30684
5276
3601
25561
9187
11976
21003
8421
26287
25294
792
821
15300
39001
10383
37116
11319
44498
43763
17582
11419
14235
1485
6528
29312
38942
43931
44251
4468
14686
15831
12174
18631
4116
36123
2861
21961
16286
32776
28554
45288
22615
5537
32211
41798
38779
4485
2475
45445
41568
45716
11311
11201
46475
26027
17124
36973
41955
16126
47437
34712
3882
9653
7039
3823
16366
8122
27
5998
18467
38717
6496
9594
22599
8675
